p edge 2131 2071
e 1 2
e 1 3
e 1 4
e 1 5
e 1 6
e 1 7
e 1 8
e 1 9
e 1 10
e 1 11
e 1 12
e 1 13
e 1 14
e 1 15
e 1 16
e 1 17
e 1 18
e 1 19
e 1 20
e 1 21
e 1 22
e 1 23
e 1 24
e 1 25
e 1 26
e 1 27
e 1 28
e 1 29
e 1 30
e 1 31
e 1 32
e 1 33
e 1 34
e 1 35
e 1 36
e 1 37
e 1 38
e 1 39
e 1 40
e 1 41
e 1 42
e 1 43
e 1 44
e 1 45
e 1 46
e 1 47
e 1 48
e 1 49
e 1 50
e 1 51
e 1 52
e 1 53
e 1 54
e 1 55
e 56 57
e 56 58
e 56 59
e 56 60
e 56 61
e 56 62
e 56 63
e 56 64
e 56 65
e 56 66
e 56 67
e 56 68
e 56 69
e 56 70
e 56 71
e 56 72
e 56 73
e 56 74
e 56 75
e 56 76
e 56 77
e 56 78
e 56 79
e 56 80
e 56 81
e 56 82
e 56 83
e 56 84
e 56 85
e 56 86
e 56 87
e 56 88
e 56 89
e 56 90
e 56 91
e 92 93
e 92 94
e 92 95
e 92 96
e 92 97
e 92 98
e 92 99
e 92 100
e 92 101
e 92 102
e 92 103
e 92 104
e 92 105
e 92 106
e 92 107
e 92 108
e 92 109
e 92 110
e 92 111
e 92 112
e 92 113
e 92 114
e 92 115
e 92 116
e 92 117
e 92 118
e 92 119
e 92 120
e 92 121
e 92 122
e 92 123
e 92 124
e 92 125
e 92 126
e 92 127
e 92 128
e 92 129
e 92 130
e 92 131
e 132 133
e 132 134
e 132 135
e 132 136
e 132 137
e 132 138
e 132 139
e 132 140
e 132 141
e 132 142
e 132 143
e 132 144
e 132 145
e 132 146
e 132 147
e 132 148
e 132 149
e 132 150
e 132 151
e 132 152
e 132 153
e 132 154
e 132 155
e 132 156
e 132 157
e 132 158
e 132 159
e 132 160
e 132 161
e 132 162
e 132 163
e 132 164
e 132 165
e 132 166
e 132 167
e 132 168
e 132 169
e 132 170
e 132 171
e 132 172
e 132 173
e 132 174
e 132 175
e 132 176
e 132 177
e 132 178
e 132 179
e 132 180
e 132 181
e 132 182
e 132 183
e 132 184
e 132 185
e 132 186
e 132 187
e 132 188
e 189 190
e 189 191
e 189 192
e 189 193
e 189 194
e 189 195
e 189 196
e 189 197
e 189 198
e 189 199
e 189 200
e 189 201
e 189 202
e 189 203
e 189 204
e 205 206
e 205 207
e 205 208
e 205 209
e 205 210
e 205 211
e 205 212
e 205 213
e 205 214
e 205 215
e 205 216
e 205 217
e 205 218
e 205 219
e 205 220
e 205 221
e 205 222
e 205 223
e 205 224
e 205 225
e 205 226
e 205 227
e 205 228
e 205 229
e 205 230
e 205 231
e 205 232
e 205 233
e 205 234
e 205 235
e 205 236
e 205 237
e 205 238
e 205 239
e 205 240
e 205 241
e 205 242
e 205 243
e 205 244
e 205 245
e 205 246
e 205 247
e 205 248
e 205 249
e 205 250
e 205 251
e 205 252
e 205 253
e 205 254
e 205 255
e 205 256
e 205 257
e 205 258
e 205 259
e 205 260
e 205 261
e 205 262
e 205 263
e 205 264
e 265 266
e 265 267
e 265 268
e 265 269
e 265 270
e 265 271
e 265 272
e 265 273
e 265 274
e 265 275
e 265 276
e 265 277
e 265 278
e 265 279
e 265 280
e 265 281
e 265 282
e 265 283
e 265 284
e 265 285
e 265 286
e 265 287
e 265 288
e 265 289
e 265 290
e 265 291
e 265 292
e 265 293
e 265 294
e 265 295
e 265 296
e 265 297
e 265 298
e 265 299
e 265 300
e 265 301
e 265 302
e 265 303
e 265 304
e 265 305
e 265 306
e 265 307
e 265 308
e 265 309
e 265 310
e 265 311
e 265 312
e 265 313
e 265 314
e 265 315
e 265 316
e 265 317
e 265 318
e 265 319
e 265 320
e 321 322
e 321 323
e 321 324
e 321 325
e 321 326
e 321 327
e 321 328
e 321 329
e 321 330
e 321 331
e 321 332
e 321 333
e 321 334
e 321 335
e 321 336
e 321 337
e 321 338
e 321 339
e 321 340
e 321 341
e 321 342
e 321 343
e 321 344
e 321 345
e 321 346
e 321 347
e 321 348
e 321 349
e 321 350
e 321 351
e 321 352
e 321 353
e 321 354
e 321 355
e 321 356
e 321 357
e 321 358
e 321 359
e 321 360
e 321 361
e 321 362
e 321 363
e 321 364
e 321 365
e 321 366
e 321 367
e 321 368
e 321 369
e 321 370
e 321 371
e 372 373
e 372 374
e 372 375
e 372 376
e 372 377
e 372 378
e 372 379
e 372 380
e 372 381
e 372 382
e 372 383
e 372 384
e 372 385
e 372 386
e 372 387
e 372 388
e 372 389
e 372 390
e 372 391
e 372 392
e 372 393
e 372 394
e 372 395
e 372 396
e 372 397
e 372 398
e 372 399
e 372 400
e 372 401
e 372 402
e 372 403
e 372 404
e 372 405
e 372 406
e 372 407
e 372 408
e 372 409
e 372 410
e 372 411
e 372 412
e 372 413
e 372 414
e 372 415
e 372 416
e 372 417
e 372 418
e 372 419
e 372 420
e 372 421
e 422 423
e 422 424
e 422 425
e 422 426
e 422 427
e 422 428
e 422 429
e 422 430
e 422 431
e 422 432
e 422 433
e 422 434
e 422 435
e 422 436
e 422 437
e 422 438
e 422 439
e 422 440
e 422 441
e 422 442
e 422 443
e 444 445
e 444 446
e 444 447
e 444 448
e 444 449
e 444 450
e 444 451
e 444 452
e 444 453
e 444 454
e 444 455
e 444 456
e 444 457
e 444 458
e 444 459
e 460 461
e 460 462
e 460 463
e 460 464
e 460 465
e 460 466
e 460 467
e 460 468
e 460 469
e 460 470
e 460 471
e 472 473
e 472 474
e 472 475
e 472 476
e 472 477
e 472 478
e 472 479
e 472 480
e 472 481
e 472 482
e 472 483
e 472 484
e 472 485
e 472 486
e 472 487
e 472 488
e 472 489
e 472 490
e 472 491
e 472 492
e 472 493
e 472 494
e 472 495
e 472 496
e 472 497
e 472 498
e 472 499
e 472 500
e 472 501
e 472 502
e 503 504
e 503 505
e 503 506
e 503 507
e 503 508
e 503 509
e 503 510
e 503 511
e 503 512
e 503 513
e 503 514
e 503 515
e 503 516
e 503 517
e 503 518
e 503 519
e 503 520
e 503 521
e 503 522
e 503 523
e 503 524
e 503 525
e 503 526
e 503 527
e 503 528
e 503 529
e 503 530
e 503 531
e 532 533
e 532 534
e 532 535
e 532 536
e 532 537
e 532 538
e 532 539
e 532 540
e 532 541
e 532 542
e 532 543
e 532 544
e 532 545
e 532 546
e 532 547
e 532 548
e 532 549
e 532 550
e 532 551
e 532 552
e 532 553
e 532 554
e 555 556
e 555 557
e 555 558
e 555 559
e 555 560
e 555 561
e 555 562
e 555 563
e 555 564
e 555 565
e 555 566
e 555 567
e 555 568
e 555 569
e 555 570
e 555 571
e 555 572
e 555 573
e 555 574
e 555 575
e 555 576
e 555 577
e 555 578
e 555 579
e 555 580
e 555 581
e 555 582
e 555 583
e 555 584
e 555 585
e 555 586
e 555 587
e 588 589
e 588 590
e 588 591
e 588 592
e 588 593
e 588 594
e 588 595
e 588 596
e 588 597
e 588 598
e 588 599
e 588 600
e 588 601
e 588 602
e 588 603
e 588 604
e 588 605
e 588 606
e 588 607
e 588 608
e 588 609
e 588 610
e 588 611
e 588 612
e 588 613
e 588 614
e 588 615
e 588 616
e 588 617
e 588 618
e 588 619
e 588 620
e 588 621
e 588 622
e 588 623
e 588 624
e 588 625
e 588 626
e 588 627
e 588 628
e 588 629
e 588 630
e 588 631
e 588 632
e 588 633
e 588 634
e 588 635
e 588 636
e 588 637
e 588 638
e 639 640
e 639 641
e 639 642
e 639 643
e 639 644
e 639 645
e 639 646
e 639 647
e 639 648
e 639 649
e 639 650
e 639 651
e 639 652
e 639 653
e 639 654
e 639 655
e 639 656
e 639 657
e 639 658
e 639 659
e 639 660
e 639 661
e 639 662
e 639 663
e 639 664
e 639 665
e 666 667
e 666 668
e 666 669
e 666 670
e 666 671
e 666 672
e 666 673
e 666 674
e 666 675
e 666 676
e 666 677
e 666 678
e 666 679
e 666 680
e 666 681
e 666 682
e 666 683
e 666 684
e 666 685
e 666 686
e 687 688
e 687 689
e 687 690
e 687 691
e 687 692
e 687 693
e 687 694
e 687 695
e 687 696
e 687 697
e 687 698
e 699 700
e 699 701
e 699 702
e 699 703
e 699 704
e 699 705
e 699 706
e 699 707
e 699 708
e 699 709
e 699 710
e 699 711
e 699 712
e 699 713
e 699 714
e 715 716
e 715 717
e 715 718
e 715 719
e 715 720
e 715 721
e 715 722
e 715 723
e 715 724
e 715 725
e 715 726
e 715 727
e 728 729
e 728 730
e 728 731
e 728 732
e 728 733
e 728 734
e 728 735
e 728 736
e 728 737
e 728 738
e 728 739
e 728 740
e 728 741
e 728 742
e 728 743
e 728 744
e 728 745
e 728 746
e 728 747
e 728 748
e 728 749
e 728 750
e 728 751
e 728 752
e 728 753
e 728 754
e 728 755
e 728 756
e 728 757
e 728 758
e 728 759
e 728 760
e 728 761
e 728 762
e 728 763
e 764 765
e 764 766
e 764 767
e 764 768
e 764 769
e 764 770
e 764 771
e 764 772
e 764 773
e 764 774
e 764 775
e 764 776
e 764 777
e 764 778
e 764 779
e 764 780
e 764 781
e 764 782
e 764 783
e 764 784
e 764 785
e 764 786
e 764 787
e 764 788
e 764 789
e 764 790
e 764 791
e 764 792
e 764 793
e 764 794
e 764 795
e 764 796
e 764 797
e 764 798
e 764 799
e 764 800
e 764 801
e 764 802
e 764 803
e 764 804
e 764 805
e 764 806
e 764 807
e 764 808
e 764 809
e 764 810
e 764 811
e 764 812
e 764 813
e 764 814
e 764 815
e 764 816
e 764 817
e 764 818
e 764 819
e 820 821
e 820 822
e 820 823
e 820 824
e 820 825
e 820 826
e 820 827
e 820 828
e 820 829
e 820 830
e 820 831
e 820 832
e 820 833
e 820 834
e 820 835
e 820 836
e 820 837
e 820 838
e 820 839
e 820 840
e 820 841
e 820 842
e 820 843
e 820 844
e 820 845
e 820 846
e 820 847
e 820 848
e 820 849
e 820 850
e 820 851
e 820 852
e 820 853
e 820 854
e 820 855
e 820 856
e 857 858
e 857 859
e 857 860
e 857 861
e 857 862
e 857 863
e 857 864
e 857 865
e 857 866
e 857 867
e 857 868
e 857 869
e 857 870
e 857 871
e 857 872
e 857 873
e 857 874
e 857 875
e 857 876
e 857 877
e 857 878
e 857 879
e 857 880
e 857 881
e 857 882
e 857 883
e 857 884
e 885 886
e 885 887
e 885 888
e 885 889
e 885 890
e 885 891
e 885 892
e 885 893
e 885 894
e 885 895
e 885 896
e 885 897
e 885 898
e 885 899
e 885 900
e 885 901
e 885 902
e 885 903
e 885 904
e 885 905
e 885 906
e 885 907
e 885 908
e 909 910
e 909 911
e 909 912
e 909 913
e 909 914
e 909 915
e 909 916
e 909 917
e 909 918
e 909 919
e 909 920
e 909 921
e 909 922
e 909 923
e 909 924
e 909 925
e 909 926
e 909 927
e 909 928
e 909 929
e 909 930
e 909 931
e 909 932
e 933 934
e 933 935
e 933 936
e 933 937
e 933 938
e 933 939
e 933 940
e 933 941
e 933 942
e 933 943
e 933 944
e 933 945
e 933 946
e 933 947
e 933 948
e 933 949
e 933 950
e 933 951
e 933 952
e 933 953
e 933 954
e 933 955
e 933 956
e 933 957
e 933 958
e 933 959
e 933 960
e 933 961
e 933 962
e 933 963
e 933 964
e 933 965
e 933 966
e 933 967
e 933 968
e 933 969
e 933 970
e 933 971
e 933 972
e 933 973
e 933 974
e 933 975
e 933 976
e 933 977
e 933 978
e 933 979
e 933 980
e 933 981
e 933 982
e 933 983
e 984 985
e 984 986
e 984 987
e 984 988
e 984 989
e 984 990
e 984 991
e 984 992
e 984 993
e 984 994
e 984 995
e 984 996
e 984 997
e 984 998
e 984 999
e 984 1000
e 984 1001
e 984 1002
e 984 1003
e 984 1004
e 984 1005
e 984 1006
e 984 1007
e 984 1008
e 984 1009
e 984 1010
e 984 1011
e 984 1012
e 984 1013
e 984 1014
e 984 1015
e 984 1016
e 984 1017
e 984 1018
e 984 1019
e 984 1020
e 984 1021
e 984 1022
e 984 1023
e 984 1024
e 984 1025
e 984 1026
e 984 1027
e 984 1028
e 984 1029
e 984 1030
e 984 1031
e 984 1032
e 984 1033
e 1034 1035
e 1034 1036
e 1034 1037
e 1034 1038
e 1034 1039
e 1034 1040
e 1034 1041
e 1034 1042
e 1034 1043
e 1034 1044
e 1034 1045
e 1034 1046
e 1034 1047
e 1034 1048
e 1034 1049
e 1034 1050
e 1034 1051
e 1052 1053
e 1052 1054
e 1052 1055
e 1052 1056
e 1052 1057
e 1052 1058
e 1052 1059
e 1052 1060
e 1052 1061
e 1052 1062
e 1052 1063
e 1052 1064
e 1052 1065
e 1052 1066
e 1052 1067
e 1052 1068
e 1052 1069
e 1052 1070
e 1052 1071
e 1052 1072
e 1052 1073
e 1052 1074
e 1052 1075
e 1052 1076
e 1052 1077
e 1052 1078
e 1052 1079
e 1052 1080
e 1052 1081
e 1052 1082
e 1052 1083
e 1052 1084
e 1052 1085
e 1052 1086
e 1052 1087
e 1052 1088
e 1052 1089
e 1052 1090
e 1052 1091
e 1052 1092
e 1052 1093
e 1052 1094
e 1052 1095
e 1052 1096
e 1052 1097
e 1052 1098
e 1052 1099
e 1052 1100
e 1052 1101
e 1052 1102
e 1103 1104
e 1103 1105
e 1103 1106
e 1103 1107
e 1103 1108
e 1103 1109
e 1103 1110
e 1103 1111
e 1103 1112
e 1103 1113
e 1103 1114
e 1103 1115
e 1103 1116
e 1103 1117
e 1103 1118
e 1103 1119
e 1103 1120
e 1103 1121
e 1103 1122
e 1103 1123
e 1103 1124
e 1103 1125
e 1103 1126
e 1103 1127
e 1103 1128
e 1103 1129
e 1103 1130
e 1103 1131
e 1103 1132
e 1103 1133
e 1103 1134
e 1103 1135
e 1103 1136
e 1103 1137
e 1103 1138
e 1103 1139
e 1103 1140
e 1103 1141
e 1103 1142
e 1103 1143
e 1103 1144
e 1103 1145
e 1103 1146
e 1147 1148
e 1147 1149
e 1147 1150
e 1147 1151
e 1147 1152
e 1147 1153
e 1147 1154
e 1147 1155
e 1147 1156
e 1147 1157
e 1147 1158
e 1147 1159
e 1147 1160
e 1147 1161
e 1147 1162
e 1147 1163
e 1147 1164
e 1147 1165
e 1147 1166
e 1147 1167
e 1147 1168
e 1147 1169
e 1147 1170
e 1147 1171
e 1147 1172
e 1147 1173
e 1147 1174
e 1147 1175
e 1147 1176
e 1147 1177
e 1147 1178
e 1147 1179
e 1147 1180
e 1147 1181
e 1147 1182
e 1147 1183
e 1147 1184
e 1147 1185
e 1147 1186
e 1147 1187
e 1147 1188
e 1147 1189
e 1147 1190
e 1147 1191
e 1147 1192
e 1147 1193
e 1147 1194
e 1147 1195
e 1147 1196
e 1147 1197
e 1147 1198
e 1147 1199
e 1147 1200
e 1147 1201
e 1147 1202
e 1147 1203
e 1147 1204
e 1205 1206
e 1205 1207
e 1205 1208
e 1205 1209
e 1205 1210
e 1205 1211
e 1205 1212
e 1205 1213
e 1205 1214
e 1205 1215
e 1205 1216
e 1205 1217
e 1205 1218
e 1205 1219
e 1205 1220
e 1205 1221
e 1205 1222
e 1205 1223
e 1205 1224
e 1205 1225
e 1205 1226
e 1205 1227
e 1205 1228
e 1205 1229
e 1205 1230
e 1205 1231
e 1205 1232
e 1205 1233
e 1205 1234
e 1205 1235
e 1205 1236
e 1205 1237
e 1205 1238
e 1205 1239
e 1205 1240
e 1205 1241
e 1205 1242
e 1205 1243
e 1244 1245
e 1244 1246
e 1244 1247
e 1244 1248
e 1244 1249
e 1244 1250
e 1244 1251
e 1244 1252
e 1244 1253
e 1244 1254
e 1244 1255
e 1244 1256
e 1244 1257
e 1244 1258
e 1244 1259
e 1244 1260
e 1244 1261
e 1244 1262
e 1244 1263
e 1244 1264
e 1244 1265
e 1244 1266
e 1244 1267
e 1244 1268
e 1244 1269
e 1244 1270
e 1244 1271
e 1244 1272
e 1244 1273
e 1244 1274
e 1244 1275
e 1244 1276
e 1244 1277
e 1244 1278
e 1244 1279
e 1244 1280
e 1244 1281
e 1244 1282
e 1244 1283
e 1244 1284
e 1244 1285
e 1244 1286
e 1244 1287
e 1244 1288
e 1244 1289
e 1244 1290
e 1244 1291
e 1244 1292
e 1293 1294
e 1293 1295
e 1293 1296
e 1293 1297
e 1293 1298
e 1293 1299
e 1293 1300
e 1293 1301
e 1293 1302
e 1293 1303
e 1293 1304
e 1293 1305
e 1293 1306
e 1293 1307
e 1293 1308
e 1293 1309
e 1293 1310
e 1293 1311
e 1293 1312
e 1293 1313
e 1293 1314
e 1293 1315
e 1293 1316
e 1293 1317
e 1293 1318
e 1293 1319
e 1293 1320
e 1293 1321
e 1293 1322
e 1293 1323
e 1293 1324
e 1293 1325
e 1293 1326
e 1293 1327
e 1293 1328
e 1293 1329
e 1293 1330
e 1293 1331
e 1293 1332
e 1293 1333
e 1293 1334
e 1293 1335
e 1293 1336
e 1293 1337
e 1293 1338
e 1293 1339
e 1293 1340
e 1293 1341
e 1293 1342
e 1293 1343
e 1293 1344
e 1293 1345
e 1293 1346
e 1293 1347
e 1293 1348
e 1293 1349
e 1293 1350
e 1293 1351
e 1352 1353
e 1352 1354
e 1352 1355
e 1352 1356
e 1352 1357
e 1352 1358
e 1352 1359
e 1352 1360
e 1352 1361
e 1352 1362
e 1352 1363
e 1364 1365
e 1364 1366
e 1364 1367
e 1364 1368
e 1364 1369
e 1364 1370
e 1364 1371
e 1364 1372
e 1364 1373
e 1364 1374
e 1364 1375
e 1364 1376
e 1364 1377
e 1364 1378
e 1364 1379
e 1364 1380
e 1364 1381
e 1364 1382
e 1364 1383
e 1364 1384
e 1364 1385
e 1364 1386
e 1364 1387
e 1364 1388
e 1364 1389
e 1364 1390
e 1364 1391
e 1364 1392
e 1364 1393
e 1364 1394
e 1364 1395
e 1364 1396
e 1364 1397
e 1364 1398
e 1364 1399
e 1364 1400
e 1364 1401
e 1364 1402
e 1364 1403
e 1364 1404
e 1364 1405
e 1364 1406
e 1407 1408
e 1407 1409
e 1407 1410
e 1407 1411
e 1407 1412
e 1407 1413
e 1407 1414
e 1407 1415
e 1407 1416
e 1407 1417
e 1407 1418
e 1407 1419
e 1407 1420
e 1407 1421
e 1407 1422
e 1407 1423
e 1407 1424
e 1407 1425
e 1407 1426
e 1407 1427
e 1407 1428
e 1407 1429
e 1407 1430
e 1407 1431
e 1407 1432
e 1407 1433
e 1407 1434
e 1407 1435
e 1407 1436
e 1407 1437
e 1407 1438
e 1407 1439
e 1407 1440
e 1407 1441
e 1442 1443
e 1442 1444
e 1442 1445
e 1442 1446
e 1442 1447
e 1442 1448
e 1442 1449
e 1442 1450
e 1442 1451
e 1442 1452
e 1442 1453
e 1442 1454
e 1442 1455
e 1442 1456
e 1442 1457
e 1442 1458
e 1442 1459
e 1442 1460
e 1442 1461
e 1442 1462
e 1442 1463
e 1442 1464
e 1442 1465
e 1442 1466
e 1442 1467
e 1442 1468
e 1442 1469
e 1442 1470
e 1442 1471
e 1442 1472
e 1442 1473
e 1442 1474
e 1442 1475
e 1442 1476
e 1442 1477
e 1442 1478
e 1442 1479
e 1442 1480
e 1442 1481
e 1442 1482
e 1442 1483
e 1442 1484
e 1442 1485
e 1442 1486
e 1442 1487
e 1488 1489
e 1488 1490
e 1488 1491
e 1488 1492
e 1488 1493
e 1488 1494
e 1488 1495
e 1488 1496
e 1488 1497
e 1488 1498
e 1488 1499
e 1488 1500
e 1488 1501
e 1488 1502
e 1488 1503
e 1488 1504
e 1488 1505
e 1488 1506
e 1488 1507
e 1488 1508
e 1488 1509
e 1488 1510
e 1488 1511
e 1488 1512
e 1488 1513
e 1488 1514
e 1488 1515
e 1488 1516
e 1488 1517
e 1488 1518
e 1488 1519
e 1488 1520
e 1488 1521
e 1488 1522
e 1488 1523
e 1488 1524
e 1488 1525
e 1488 1526
e 1488 1527
e 1488 1528
e 1488 1529
e 1488 1530
e 1488 1531
e 1532 1533
e 1532 1534
e 1532 1535
e 1532 1536
e 1532 1537
e 1532 1538
e 1532 1539
e 1532 1540
e 1532 1541
e 1532 1542
e 1532 1543
e 1532 1544
e 1532 1545
e 1532 1546
e 1532 1547
e 1532 1548
e 1532 1549
e 1532 1550
e 1532 1551
e 1532 1552
e 1532 1553
e 1532 1554
e 1532 1555
e 1532 1556
e 1532 1557
e 1558 1559
e 1558 1560
e 1558 1561
e 1558 1562
e 1558 1563
e 1558 1564
e 1558 1565
e 1558 1566
e 1558 1567
e 1558 1568
e 1558 1569
e 1558 1570
e 1558 1571
e 1558 1572
e 1558 1573
e 1558 1574
e 1558 1575
e 1558 1576
e 1558 1577
e 1558 1578
e 1558 1579
e 1558 1580
e 1558 1581
e 1558 1582
e 1558 1583
e 1558 1584
e 1558 1585
e 1558 1586
e 1558 1587
e 1558 1588
e 1558 1589
e 1558 1590
e 1558 1591
e 1558 1592
e 1558 1593
e 1558 1594
e 1558 1595
e 1558 1596
e 1558 1597
e 1558 1598
e 1558 1599
e 1558 1600
e 1558 1601
e 1558 1602
e 1558 1603
e 1558 1604
e 1558 1605
e 1558 1606
e 1558 1607
e 1558 1608
e 1558 1609
e 1558 1610
e 1558 1611
e 1558 1612
e 1558 1613
e 1558 1614
e 1558 1615
e 1558 1616
e 1558 1617
e 1558 1618
e 1619 1620
e 1619 1621
e 1619 1622
e 1619 1623
e 1619 1624
e 1619 1625
e 1619 1626
e 1619 1627
e 1619 1628
e 1619 1629
e 1619 1630
e 1619 1631
e 1619 1632
e 1619 1633
e 1619 1634
e 1619 1635
e 1619 1636
e 1619 1637
e 1619 1638
e 1619 1639
e 1619 1640
e 1619 1641
e 1619 1642
e 1619 1643
e 1619 1644
e 1619 1645
e 1619 1646
e 1619 1647
e 1619 1648
e 1619 1649
e 1619 1650
e 1619 1651
e 1619 1652
e 1619 1653
e 1619 1654
e 1619 1655
e 1619 1656
e 1619 1657
e 1619 1658
e 1619 1659
e 1619 1660
e 1619 1661
e 1619 1662
e 1619 1663
e 1619 1664
e 1619 1665
e 1619 1666
e 1619 1667
e 1619 1668
e 1619 1669
e 1670 1671
e 1670 1672
e 1670 1673
e 1670 1674
e 1670 1675
e 1670 1676
e 1670 1677
e 1670 1678
e 1670 1679
e 1670 1680
e 1670 1681
e 1670 1682
e 1670 1683
e 1670 1684
e 1670 1685
e 1670 1686
e 1670 1687
e 1670 1688
e 1670 1689
e 1670 1690
e 1691 1692
e 1691 1693
e 1691 1694
e 1691 1695
e 1691 1696
e 1691 1697
e 1691 1698
e 1691 1699
e 1691 1700
e 1691 1701
e 1691 1702
e 1691 1703
e 1691 1704
e 1691 1705
e 1691 1706
e 1691 1707
e 1691 1708
e 1691 1709
e 1691 1710
e 1691 1711
e 1691 1712
e 1691 1713
e 1691 1714
e 1691 1715
e 1691 1716
e 1691 1717
e 1691 1718
e 1691 1719
e 1720 1721
e 1720 1722
e 1720 1723
e 1720 1724
e 1720 1725
e 1720 1726
e 1720 1727
e 1720 1728
e 1720 1729
e 1720 1730
e 1720 1731
e 1720 1732
e 1720 1733
e 1720 1734
e 1720 1735
e 1720 1736
e 1720 1737
e 1720 1738
e 1720 1739
e 1720 1740
e 1720 1741
e 1720 1742
e 1720 1743
e 1720 1744
e 1720 1745
e 1720 1746
e 1720 1747
e 1720 1748
e 1720 1749
e 1720 1750
e 1720 1751
e 1720 1752
e 1720 1753
e 1720 1754
e 1720 1755
e 1720 1756
e 1720 1757
e 1720 1758
e 1720 1759
e 1720 1760
e 1720 1761
e 1762 1763
e 1762 1764
e 1762 1765
e 1762 1766
e 1762 1767
e 1762 1768
e 1762 1769
e 1762 1770
e 1762 1771
e 1762 1772
e 1762 1773
e 1762 1774
e 1762 1775
e 1762 1776
e 1762 1777
e 1762 1778
e 1762 1779
e 1762 1780
e 1762 1781
e 1762 1782
e 1762 1783
e 1762 1784
e 1762 1785
e 1762 1786
e 1762 1787
e 1762 1788
e 1762 1789
e 1762 1790
e 1762 1791
e 1762 1792
e 1762 1793
e 1762 1794
e 1762 1795
e 1762 1796
e 1762 1797
e 1762 1798
e 1762 1799
e 1762 1800
e 1762 1801
e 1762 1802
e 1762 1803
e 1762 1804
e 1762 1805
e 1762 1806
e 1762 1807
e 1762 1808
e 1762 1809
e 1762 1810
e 1762 1811
e 1762 1812
e 1762 1813
e 1762 1814
e 1815 1816
e 1815 1817
e 1815 1818
e 1815 1819
e 1815 1820
e 1815 1821
e 1815 1822
e 1815 1823
e 1815 1824
e 1815 1825
e 1815 1826
e 1815 1827
e 1815 1828
e 1815 1829
e 1815 1830
e 1815 1831
e 1815 1832
e 1815 1833
e 1815 1834
e 1815 1835
e 1815 1836
e 1815 1837
e 1815 1838
e 1815 1839
e 1815 1840
e 1815 1841
e 1815 1842
e 1815 1843
e 1815 1844
e 1815 1845
e 1815 1846
e 1815 1847
e 1815 1848
e 1815 1849
e 1850 1851
e 1850 1852
e 1850 1853
e 1850 1854
e 1850 1855
e 1850 1856
e 1850 1857
e 1850 1858
e 1850 1859
e 1850 1860
e 1861 1862
e 1861 1863
e 1861 1864
e 1861 1865
e 1861 1866
e 1861 1867
e 1861 1868
e 1861 1869
e 1861 1870
e 1861 1871
e 1861 1872
e 1861 1873
e 1874 1875
e 1874 1876
e 1874 1877
e 1874 1878
e 1874 1879
e 1874 1880
e 1874 1881
e 1874 1882
e 1874 1883
e 1874 1884
e 1874 1885
e 1874 1886
e 1874 1887
e 1874 1888
e 1874 1889
e 1874 1890
e 1874 1891
e 1874 1892
e 1874 1893
e 1874 1894
e 1874 1895
e 1874 1896
e 1874 1897
e 1874 1898
e 1874 1899
e 1874 1900
e 1874 1901
e 1874 1902
e 1874 1903
e 1874 1904
e 1874 1905
e 1874 1906
e 1874 1907
e 1874 1908
e 1874 1909
e 1874 1910
e 1874 1911
e 1874 1912
e 1874 1913
e 1874 1914
e 1874 1915
e 1874 1916
e 1874 1917
e 1874 1918
e 1874 1919
e 1874 1920
e 1874 1921
e 1874 1922
e 1874 1923
e 1874 1924
e 1874 1925
e 1874 1926
e 1874 1927
e 1874 1928
e 1874 1929
e 1874 1930
e 1874 1931
e 1932 1933
e 1932 1934
e 1932 1935
e 1932 1936
e 1932 1937
e 1932 1938
e 1932 1939
e 1932 1940
e 1932 1941
e 1932 1942
e 1932 1943
e 1932 1944
e 1932 1945
e 1932 1946
e 1932 1947
e 1932 1948
e 1932 1949
e 1932 1950
e 1932 1951
e 1952 1953
e 1952 1954
e 1952 1955
e 1952 1956
e 1952 1957
e 1952 1958
e 1952 1959
e 1952 1960
e 1952 1961
e 1952 1962
e 1952 1963
e 1952 1964
e 1952 1965
e 1952 1966
e 1967 1968
e 1967 1969
e 1967 1970
e 1967 1971
e 1967 1972
e 1967 1973
e 1967 1974
e 1967 1975
e 1967 1976
e 1967 1977
e 1967 1978
e 1967 1979
e 1967 1980
e 1967 1981
e 1967 1982
e 1967 1983
e 1967 1984
e 1967 1985
e 1967 1986
e 1967 1987
e 1988 1989
e 1988 1990
e 1988 1991
e 1988 1992
e 1988 1993
e 1988 1994
e 1988 1995
e 1988 1996
e 1988 1997
e 1988 1998
e 1988 1999
e 1988 2000
e 1988 2001
e 1988 2002
e 1988 2003
e 1988 2004
e 1988 2005
e 1988 2006
e 1988 2007
e 1988 2008
e 1988 2009
e 1988 2010
e 2011 2012
e 2011 2013
e 2011 2014
e 2011 2015
e 2011 2016
e 2011 2017
e 2011 2018
e 2011 2019
e 2011 2020
e 2011 2021
e 2011 2022
e 2011 2023
e 2011 2024
e 2025 2026
e 2025 2027
e 2025 2028
e 2025 2029
e 2025 2030
e 2025 2031
e 2025 2032
e 2025 2033
e 2025 2034
e 2025 2035
e 2025 2036
e 2025 2037
e 2025 2038
e 2025 2039
e 2025 2040
e 2025 2041
e 2025 2042
e 2025 2043
e 2025 2044
e 2025 2045
e 2025 2046
e 2025 2047
e 2025 2048
e 2025 2049
e 2025 2050
e 2025 2051
e 2025 2052
e 2025 2053
e 2025 2054
e 2025 2055
e 2025 2056
e 2025 2057
e 2025 2058
e 2025 2059
e 2025 2060
e 2025 2061
e 2025 2062
e 2025 2063
e 2025 2064
e 2025 2065
e 2025 2066
e 2025 2067
e 2025 2068
e 2025 2069
e 2025 2070
e 2025 2071
e 2025 2072
e 2025 2073
e 2025 2074
e 2025 2075
e 2025 2076
e 2025 2077
e 2025 2078
e 2025 2079
e 2025 2080
e 2025 2081
e 2082 2083
e 2082 2084
e 2082 2085
e 2082 2086
e 2082 2087
e 2082 2088
e 2082 2089
e 2082 2090
e 2082 2091
e 2082 2092
e 2082 2093
e 2082 2094
e 2082 2095
e 2082 2096
e 2082 2097
e 2082 2098
e 2082 2099
e 2082 2100
e 2082 2101
e 2082 2102
e 2082 2103
e 2082 2104
e 2082 2105
e 2082 2106
e 2082 2107
e 2082 2108
e 2082 2109
e 2082 2110
e 2082 2111
e 2082 2112
e 2082 2113
e 2082 2114
e 2082 2115
e 2082 2116
e 2082 2117
e 2082 2118
e 2082 2119
e 2082 2120
e 2082 2121
e 2082 2122
e 2082 2123
e 2082 2124
e 2082 2125
e 2082 2126
e 2082 2127
e 2082 2128
e 2082 2129
e 2082 2130
e 2082 2131
